33D32945 STP File, STP Format Version 1.0

SECTION Comment
Name    "i160-244"
Creator "Cees Duin"
Remark  "Incidence graph"
END

SECTION Graph
Nodes 160
Edges 2544
E 1 2 302
E 1 13 296
E 1 17 303
E 1 19 295
E 1 20 310
E 1 24 297
E 1 36 210
E 1 49 205
E 1 52 198
E 1 54 199
E 1 59 201
E 1 60 198
E 1 61 200
E 1 71 200
E 1 76 200
E 1 91 203
E 1 92 208
E 1 101 202
E 1 105 197
E 1 106 198
E 1 112 199
E 1 114 206
E 1 117 197
E 1 120 205
E 1 132 200
E 1 134 202
E 1 138 199
E 1 140 199
E 1 144 201
E 1 154 198
E 2 9 296
E 2 14 304
E 2 17 297
E 2 18 299
E 2 30 195
E 2 32 202
E 2 34 211
E 2 39 198
E 2 40 195
E 2 43 202
E 2 52 197
E 2 54 199
E 2 56 201
E 2 58 200
E 2 66 191
E 2 75 197
E 2 81 202
E 2 87 192
E 2 95 189
E 2 101 197
E 2 108 201
E 2 109 196
E 2 115 195
E 2 128 202
E 2 131 210
E 2 135 202
E 2 142 199
E 2 145 202
E 3 10 305
E 3 11 294
E 3 21 293
E 3 28 200
E 3 35 193
E 3 49 200
E 3 51 202
E 3 59 206
E 3 62 202
E 3 63 196
E 3 66 206
E 3 82 211
E 3 87 204
E 3 88 197
E 3 91 193
E 3 92 203
E 3 93 200
E 3 100 192
E 3 108 207
E 3 111 197
E 3 114 198
E 3 121 202
E 3 134 197
E 3 136 201
E 3 138 207
E 3 145 194
E 3 156 194
E 3 160 206
E 4 9 290
E 4 13 292
E 4 15 292
E 4 20 301
E 4 25 203
E 4 31 203
E 4 33 195
E 4 37 195
E 4 42 197
E 4 45 198
E 4 49 202
E 4 58 194
E 4 69 205
E 4 71 200
E 4 72 199
E 4 75 207
E 4 89 197
E 4 92 195
E 4 97 199
E 4 104 209
E 4 113 206
E 4 125 199
E 4 130 200
E 4 132 198
E 4 140 195
E 4 144 203
E 4 146 199
E 4 154 198
E 4 158 196
E 5 13 301
E 5 30 203
E 5 37 200
E 5 40 198
E 5 41 202
E 5 42 191
E 5 48 205
E 5 51 196
E 5 56 199
E 5 58 196
E 5 62 198
E 5 67 200
E 5 72 204
E 5 92 212
E 5 106 207
E 5 107 193
E 5 112 196
E 5 117 203
E 5 121 202
E 5 122 197
E 5 123 197
E 5 126 209
E 5 136 194
E 5 141 199
E 5 151 200
E 5 152 202
E 5 154 195
E 5 159 203
E 5 160 205
E 6 8 300
E 6 10 294
E 6 12 293
E 6 15 297
E 6 22 293
E 6 32 198
E 6 34 195
E 6 35 202
E 6 39 203
E 6 47 195
E 6 50 201
E 6 55 210
E 6 74 204
E 6 75 195
E 6 78 204
E 6 79 195
E 6 80 190
E 6 81 203
E 6 82 194
E 6 89 206
E 6 91 204
E 6 96 211
E 6 97 200
E 6 108 198
E 6 113 204
E 6 122 192
E 6 134 205
E 6 142 202
E 6 152 202
E 7 19 297
E 7 24 288
E 7 25 195
E 7 32 214
E 7 33 198
E 7 37 196
E 7 41 195
E 7 45 193
E 7 49 187
E 7 52 197
E 7 59 205
E 7 63 198
E 7 66 198
E 7 84 200
E 7 85 197
E 7 94 202
E 7 96 195
E 7 101 205
E 7 102 199
E 7 110 193
E 7 118 202
E 7 121 203
E 7 125 204
E 7 136 199
E 7 142 191
E 7 144 190
E 7 157 199
E 7 159 195
E 7 160 195
E 8 18 305
E 8 19 303
E 8 20 299
E 8 21 302
E 8 24 300
E 8 27 207
E 8 41 202
E 8 54 205
E 8 55 191
E 8 57 195
E 8 59 201
E 8 69 201
E 8 75 197
E 8 77 196
E 8 85 200
E 8 86 200
E 8 87 194
E 8 90 200
E 8 95 192
E 8 96 198
E 8 99 197
E 8 101 195
E 8 105 198
E 8 113 207
E 8 117 200
E 8 118 203
E 8 120 205
E 8 122 200
E 8 125 201
E 8 126 192
E 8 128 195
E 8 129 203
E 8 130 199
E 8 132 198
E 8 135 205
E 8 139 202
E 8 151 209
E 8 156 198
E 8 158 209
E 8 159 204
E 8 160 205
E 9 14 305
E 9 25 195
E 9 34 202
E 9 44 194
E 9 45 195
E 9 51 206
E 9 60 189
E 9 61 192
E 9 62 193
E 9 65 198
E 9 66 208
E 9 70 200
E 9 73 194
E 9 74 201
E 9 78 194
E 9 83 189
E 9 85 205
E 9 87 194
E 9 94 198
E 9 97 202
E 9 98 211
E 9 101 202
E 9 102 204
E 9 108 194
E 9 117 193
E 9 135 199
E 9 136 199
E 9 141 196
E 9 154 199
E 9 160 201
E 10 11 306
E 10 20 298
E 10 24 302
E 10 42 199
E 10 43 197
E 10 53 194
E 10 56 203
E 10 59 202
E 10 61 200
E 10 63 195
E 10 73 206
E 10 79 204
E 10 84 200
E 10 85 200
E 10 92 201
E 10 93 202
E 10 94 193
E 10 105 195
E 10 112 203
E 10 120 198
E 10 125 200
E 10 127 198
E 10 130 200
E 10 142 193
E 11 12 303
E 11 14 300
E 11 16 295
E 11 29 203
E 11 38 201
E 11 40 203
E 11 42 201
E 11 44 199
E 11 46 199
E 11 49 198
E 11 56 206
E 11 62 202
E 11 65 202
E 11 68 196
E 11 78 203
E 11 79 193
E 11 88 202
E 11 95 199
E 11 96 193
E 11 97 205
E 11 104 197
E 11 109 210
E 11 112 193
E 11 116 201
E 11 123 193
E 11 133 206
E 11 136 195
E 11 138 200
E 11 144 204
E 11 147 202
E 11 148 200
E 11 157 198
E 12 15 302
E 12 19 302
E 12 33 195
E 12 35 207
E 12 39 189
E 12 40 196
E 12 50 199
E 12 56 201
E 12 60 201
E 12 64 200
E 12 69 206
E 12 77 202
E 12 80 199
E 12 81 204
E 12 94 199
E 12 101 209
E 12 102 201
E 12 111 199
E 12 113 198
E 12 118 199
E 12 130 210
E 12 131 197
E 12 134 203
E 12 143 195
E 12 153 202
E 12 156 204
E 12 160 199
E 13 19 297
E 13 20 298
E 13 25 200
E 13 39 197
E 13 57 195
E 13 58 197
E 13 59 197
E 13 60 200
E 13 62 203
E 13 63 203
E 13 64 198
E 13 65 204
E 13 73 201
E 13 76 201
E 13 77 194
E 13 78 209
E 13 84 196
E 13 86 199
E 13 91 206
E 13 95 204
E 13 97 196
E 13 107 202
E 13 116 202
E 13 121 196
E 13 123 198
E 13 139 196
E 13 144 203
E 13 146 198
E 13 154 198
E 14 15 298
E 14 17 299
E 14 22 296
E 14 31 198
E 14 36 194
E 14 38 198
E 14 39 207
E 14 40 200
E 14 42 202
E 14 44 193
E 14 46 200
E 14 53 195
E 14 56 193
E 14 58 201
E 14 65 210
E 14 69 200
E 14 74 196
E 14 82 199
E 14 85 195
E 14 98 196
E 14 101 206
E 14 117 203
E 14 119 198
E 14 125 204
E 14 130 199
E 14 146 206
E 14 149 201
E 14 150 198
E 14 155 195
E 14 157 207
E 15 17 299
E 15 31 196
E 15 32 194
E 15 36 202
E 15 37 200
E 15 45 198
E 15 47 194
E 15 48 207
E 15 59 203
E 15 61 198
E 15 65 195
E 15 66 200
E 15 67 195
E 15 69 198
E 15 71 197
E 15 73 200
E 15 79 197
E 15 82 191
E 15 88 203
E 15 91 199
E 15 92 195
E 15 94 205
E 15 108 198
E 15 112 207
E 15 117 207
E 15 135 209
E 15 136 205
E 15 137 197
E 15 139 203
E 15 141 201
E 15 143 206
E 15 148 202
E 15 158 203
E 16 32 203
E 16 43 206
E 16 45 201
E 16 51 192
E 16 59 201
E 16 61 195
E 16 65 199
E 16 75 198
E 16 77 202
E 16 82 202
E 16 84 197
E 16 85 191
E 16 93 197
E 16 96 202
E 16 99 190
E 16 105 198
E 16 114 196
E 16 115 195
E 16 119 197
E 16 123 203
E 16 124 195
E 16 128 203
E 16 133 203
E 16 138 202
E 16 139 193
E 16 157 191
E 16 158 202
E 17 23 300
E 17 24 302
E 17 28 198
E 17 30 202
E 17 32 199
E 17 33 193
E 17 34 196
E 17 38 213
E 17 40 206
E 17 54 205
E 17 56 203
E 17 62 194
E 17 63 197
E 17 69 195
E 17 70 194
E 17 71 186
E 17 79 199
E 17 90 210
E 17 100 213
E 17 102 201
E 17 111 199
E 17 112 186
E 17 121 197
E 17 122 198
E 17 123 195
E 17 128 202
E 17 129 189
E 17 134 203
E 17 135 196
E 17 141 208
E 17 144 201
E 17 145 197
E 17 148 191
E 17 150 191
E 17 159 195
E 18 20 301
E 18 26 196
E 18 40 194
E 18 43 189
E 18 48 196
E 18 52 202
E 18 53 203
E 18 59 196
E 18 67 205
E 18 79 198
E 18 82 200
E 18 91 199
E 18 92 197
E 18 97 201
E 18 106 202
E 18 114 206
E 18 122 191
E 18 125 203
E 18 128 205
E 18 138 203
E 18 139 199
E 18 144 206
E 18 148 195
E 18 156 207
E 18 159 206
E 19 20 299
E 19 28 199
E 19 30 199
E 19 38 198
E 19 49 198
E 19 52 203
E 19 56 195
E 19 60 204
E 19 63 204
E 19 66 201
E 19 79 197
E 19 87 199
E 19 90 194
E 19 92 201
E 19 94 193
E 19 95 200
E 19 96 201
E 19 98 203
E 19 99 199
E 19 101 199
E 19 102 204
E 19 104 203
E 19 108 207
E 19 109 198
E 19 113 193
E 19 118 194
E 19 121 198
E 19 123 196
E 19 125 196
E 19 126 193
E 19 128 198
E 19 131 193
E 19 154 190
E 20 21 299
E 20 24 290
E 20 30 194
E 20 38 210
E 20 41 199
E 20 45 207
E 20 49 203
E 20 51 200
E 20 54 196
E 20 58 207
E 20 77 200
E 20 90 198
E 20 94 203
E 20 100 198
E 20 105 201
E 20 106 200
E 20 116 197
E 20 118 204
E 20 130 198
E 20 140 197
E 20 145 195
E 20 147 193
E 20 148 200
E 20 153 201
E 20 154 201
E 20 157 196
E 20 159 208
E 21 23 295
E 21 25 210
E 21 37 198
E 21 50 192
E 21 53 197
E 21 58 201
E 21 61 205
E 21 63 200
E 21 66 195
E 21 77 196
E 21 90 189
E 21 92 203
E 21 114 197
E 21 124 195
E 21 131 197
E 21 141 190
E 21 148 209
E 21 155 204
E 21 156 202
E 22 24 297
E 22 25 200
E 22 39 200
E 22 46 197
E 22 51 193
E 22 72 201
E 22 74 201
E 22 75 204
E 22 84 198
E 22 85 199
E 22 91 208
E 22 93 199
E 22 98 200
E 22 99 202
E 22 104 210
E 22 107 204
E 22 118 204
E 22 123 196
E 22 124 195
E 22 126 206
E 22 128 203
E 22 132 207
E 22 135 194
E 22 139 194
E 22 140 195
E 22 142 198
E 22 143 196
E 22 149 203
E 22 154 196
E 23 26 189
E 23 30 197
E 23 40 199
E 23 41 197
E 23 43 199
E 23 44 192
E 23 47 200
E 23 50 200
E 23 52 190
E 23 56 206
E 23 60 199
E 23 63 196
E 23 64 196
E 23 70 196
E 23 96 203
E 23 100 199
E 23 106 199
E 23 107 197
E 23 110 200
E 23 118 203
E 23 134 201
E 23 137 201
E 23 140 196
E 23 151 203
E 23 154 202
E 23 159 200
E 24 25 210
E 24 28 200
E 24 30 196
E 24 34 202
E 24 39 207
E 24 41 197
E 24 52 209
E 24 61 208
E 24 69 196
E 24 70 186
E 24 71 200
E 24 72 194
E 24 74 201
E 24 85 197
E 24 86 207
E 24 89 206
E 24 105 204
E 24 110 192
E 24 112 197
E 24 115 202
E 24 120 198
E 24 128 202
E 24 131 191
E 24 136 205
E 24 144 196
E 24 150 201
E 24 153 191
E 24 155 203
E 24 156 195
E 24 158 201
E 25 31 100
E 25 32 103
E 25 34 98
E 25 38 100
E 25 41 103
E 25 42 103
E 25 44 101
E 25 45 99
E 25 47 93
E 25 56 103
E 25 67 101
E 25 73 105
E 25 78 99
E 25 82 93
E 25 91 103
E 25 96 96
E 25 97 105
E 25 98 95
E 25 99 94
E 25 103 89
E 25 109 104
E 25 112 104
E 25 115 102
E 25 116 98
E 25 118 100
E 25 123 99
E 25 124 91
E 25 128 101
E 25 130 104
E 25 131 105
E 25 135 101
E 25 139 102
E 25 147 97
E 25 150 107
E 25 156 109
E 26 28 101
E 26 31 95
E 26 36 101
E 26 38 99
E 26 40 98
E 26 47 104
E 26 48 103
E 26 57 103
E 26 59 99
E 26 64 98
E 26 73 102
E 26 80 98
E 26 89 99
E 26 91 88
E 26 103 107
E 26 106 104
E 26 111 108
E 26 115 102
E 26 120 95
E 26 122 93
E 26 132 104
E 26 140 105
E 26 146 105
E 26 149 96
E 26 154 100
E 26 160 103
E 27 28 101
E 27 31 99
E 27 39 96
E 27 45 106
E 27 49 104
E 27 54 100
E 27 60 99
E 27 76 94
E 27 85 109
E 27 94 93
E 27 98 100
E 27 101 102
E 27 103 100
E 27 106 87
E 27 110 96
E 27 114 101
E 27 115 104
E 27 120 94
E 27 122 94
E 27 131 113
E 27 141 107
E 27 143 107
E 27 151 97
E 27 153 98
E 28 38 97
E 28 48 97
E 28 49 95
E 28 50 105
E 28 54 106
E 28 55 104
E 28 59 101
E 28 66 100
E 28 78 97
E 28 80 92
E 28 84 96
E 28 92 104
E 28 96 100
E 28 97 97
E 28 98 105
E 28 101 102
E 28 105 101
E 28 106 86
E 28 115 97
E 28 117 98
E 28 119 101
E 28 121 98
E 28 122 97
E 28 123 93
E 28 125 102
E 28 128 99
E 28 140 102
E 28 142 97
E 28 146 107
E 28 148 98
E 28 154 97
E 28 155 98
E 28 160 99
E 29 34 105
E 29 39 101
E 29 42 90
E 29 55 97
E 29 63 97
E 29 65 102
E 29 67 97
E 29 69 94
E 29 71 100
E 29 72 101
E 29 74 94
E 29 83 100
E 29 88 98
E 29 89 98
E 29 98 98
E 29 101 98
E 29 102 98
E 29 105 101
E 29 110 108
E 29 113 102
E 29 115 98
E 29 117 112
E 29 119 96
E 29 122 106
E 29 124 105
E 29 129 98
E 29 130 106
E 29 141 92
E 29 143 97
E 29 149 93
E 29 150 100
E 29 152 95
E 29 154 100
E 29 160 94
E 30 38 97
E 30 42 105
E 30 43 100
E 30 44 102
E 30 55 93
E 30 65 94
E 30 76 104
E 30 80 95
E 30 90 104
E 30 91 96
E 30 100 112
E 30 102 103
E 30 103 103
E 30 107 100
E 30 112 92
E 30 122 98
E 30 126 95
E 30 135 100
E 30 136 99
E 30 141 97
E 30 142 99
E 30 148 100
E 30 153 90
E 30 154 96
E 31 37 98
E 31 38 106
E 31 41 93
E 31 43 96
E 31 45 98
E 31 49 92
E 31 51 99
E 31 56 102
E 31 58 102
E 31 59 93
E 31 61 95
E 31 66 97
E 31 71 96
E 31 84 96
E 31 89 101
E 31 91 92
E 31 97 101
E 31 106 91
E 31 122 100
E 31 135 98
E 31 138 101
E 31 148 106
E 31 149 98
E 31 153 100
E 31 154 101
E 31 157 96
E 32 33 102
E 32 35 99
E 32 40 102
E 32 43 103
E 32 44 107
E 32 53 101
E 32 54 93
E 32 60 97
E 32 61 96
E 32 68 105
E 32 93 97
E 32 94 98
E 32 100 110
E 32 104 95
E 32 105 105
E 32 107 99
E 32 108 105
E 32 115 95
E 32 120 95
E 32 129 107
E 32 130 94
E 32 134 102
E 32 135 100
E 32 139 96
E 32 144 96
E 32 146 100
E 32 153 101
E 32 155 99
E 32 158 106
E 32 159 103
E 33 37 96
E 33 42 98
E 33 50 98
E 33 60 100
E 33 63 96
E 33 67 101
E 33 83 84
E 33 96 100
E 33 100 92
E 33 104 113
E 33 105 105
E 33 115 105
E 33 121 99
E 33 127 102
E 33 131 97
E 33 133 96
E 33 134 107
E 33 137 95
E 33 141 106
E 33 150 104
E 33 154 100
E 33 158 103
E 34 37 111
E 34 40 95
E 34 45 103
E 34 50 97
E 34 57 92
E 34 58 97
E 34 59 104
E 34 61 104
E 34 65 104
E 34 70 102
E 34 72 103
E 34 75 107
E 34 81 96
E 34 85 103
E 34 89 99
E 34 96 109
E 34 100 97
E 34 107 102
E 34 113 98
E 34 114 99
E 34 118 103
E 34 122 102
E 34 125 92
E 34 127 95
E 34 131 93
E 34 153 102
E 34 156 93
E 34 158 98
E 34 159 104
E 34 160 100
E 35 36 102
E 35 40 105
E 35 51 103
E 35 52 107
E 35 55 98
E 35 60 96
E 35 66 102
E 35 68 97
E 35 77 101
E 35 78 107
E 35 81 96
E 35 86 107
E 35 91 103
E 35 93 104
E 35 97 107
E 35 111 100
E 35 112 100
E 35 119 99
E 35 120 89
E 35 125 107
E 35 134 99
E 35 138 95
E 35 144 102
E 35 157 93
E 36 37 98
E 36 46 110
E 36 52 99
E 36 54 105
E 36 64 103
E 36 71 106
E 36 79 103
E 36 81 100
E 36 82 105
E 36 83 102
E 36 103 102
E 36 115 103
E 36 121 103
E 36 123 97
E 36 126 101
E 36 127 101
E 36 129 101
E 36 130 99
E 36 136 103
E 36 138 102
E 36 144 99
E 36 151 95
E 36 154 93
E 36 156 102
E 37 41 89
E 37 49 100
E 37 72 94
E 37 78 102
E 37 81 108
E 37 84 93
E 37 88 100
E 37 101 100
E 37 107 107
E 37 112 97
E 37 122 97
E 37 125 99
E 37 127 96
E 37 134 100
E 37 136 104
E 37 143 92
E 37 155 100
E 38 42 101
E 38 57 100
E 38 60 98
E 38 63 105
E 38 80 100
E 38 83 97
E 38 87 103
E 38 89 95
E 38 99 100
E 38 100 95
E 38 101 96
E 38 102 93
E 38 108 104
E 38 114 93
E 38 117 103
E 38 125 102
E 38 128 97
E 38 131 100
E 38 132 97
E 38 134 93
E 38 135 98
E 38 141 100
E 38 144 99
E 38 153 97
E 38 156 97
E 38 160 97
E 39 41 100
E 39 45 101
E 39 53 100
E 39 55 102
E 39 69 101
E 39 75 100
E 39 88 95
E 39 97 95
E 39 103 94
E 39 115 97
E 39 120 97
E 39 121 98
E 39 127 99
E 39 129 97
E 39 130 102
E 39 134 100
E 39 143 98
E 39 145 94
E 39 146 99
E 39 147 109
E 39 151 108
E 39 156 99
E 39 159 98
E 40 41 107
E 40 52 94
E 40 53 105
E 40 55 92
E 40 56 100
E 40 65 94
E 40 70 101
E 40 73 98
E 40 75 98
E 40 82 94
E 40 87 97
E 40 94 106
E 40 110 96
E 40 112 97
E 40 116 108
E 40 122 100
E 40 123 100
E 40 134 108
E 40 136 86
E 40 138 101
E 40 147 106
E 40 155 99
E 40 156 112
E 40 157 103
E 41 47 98
E 41 50 99
E 41 53 92
E 41 57 93
E 41 73 104
E 41 78 104
E 41 93 100
E 41 97 106
E 41 98 94
E 41 101 92
E 41 109 99
E 41 115 95
E 41 118 105
E 41 122 95
E 41 123 108
E 41 126 98
E 41 127 96
E 41 129 100
E 41 131 96
E 41 152 96
E 41 160 96
E 42 54 92
E 42 56 104
E 42 65 99
E 42 66 101
E 42 70 103
E 42 75 96
E 42 82 85
E 42 92 98
E 42 96 115
E 42 101 91
E 42 104 94
E 42 110 99
E 42 137 91
E 42 138 100
E 42 143 94
E 42 145 109
E 42 146 102
E 42 148 99
E 42 151 102
E 42 153 101
E 42 157 89
E 43 63 105
E 43 68 104
E 43 69 101
E 43 87 103
E 43 90 101
E 43 91 108
E 43 93 101
E 43 99 95
E 43 100 95
E 43 111 94
E 43 112 101
E 43 115 103
E 43 125 95
E 43 134 104
E 43 139 90
E 43 141 86
E 43 147 104
E 43 148 105
E 44 49 99
E 44 52 101
E 44 54 100
E 44 55 102
E 44 58 95
E 44 62 95
E 44 64 99
E 44 65 102
E 44 69 99
E 44 75 97
E 44 81 107
E 44 83 97
E 44 85 93
E 44 90 106
E 44 91 101
E 44 92 97
E 44 100 104
E 44 101 101
E 44 104 99
E 44 107 101
E 44 121 108
E 44 136 96
E 44 140 103
E 44 153 98
E 44 156 92
E 44 157 102
E 45 48 96
E 45 54 103
E 45 64 100
E 45 65 99
E 45 68 104
E 45 72 101
E 45 75 100
E 45 93 96
E 45 95 94
E 45 106 96
E 45 111 104
E 45 122 101
E 45 127 98
E 45 130 98
E 45 131 101
E 45 141 96
E 45 142 101
E 45 146 106
E 45 150 105
E 45 158 104
E 45 159 114
E 46 47 96
E 46 57 91
E 46 58 96
E 46 59 89
E 46 72 97
E 46 74 101
E 46 79 97
E 46 83 98
E 46 90 102
E 46 93 93
E 46 103 107
E 46 106 103
E 46 107 98
E 46 118 99
E 46 121 101
E 46 124 101
E 46 125 98
E 46 130 106
E 46 133 96
E 46 135 97
E 46 146 103
E 46 153 93
E 46 158 96
E 47 49 100
E 47 52 98
E 47 54 111
E 47 59 103
E 47 60 102
E 47 65 97
E 47 73 103
E 47 75 91
E 47 82 97
E 47 84 93
E 47 87 99
E 47 95 98
E 47 97 100
E 47 100 106
E 47 114 104
E 47 121 108
E 47 122 96
E 47 123 104
E 47 138 105
E 47 142 105
E 47 143 104
E 47 146 98
E 47 147 105
E 47 148 99
E 47 158 95
E 47 159 101
E 48 50 93
E 48 54 100
E 48 59 96
E 48 65 91
E 48 74 108
E 48 80 99
E 48 87 96
E 48 88 103
E 48 92 103
E 48 95 102
E 48 99 97
E 48 107 95
E 48 108 94
E 48 110 97
E 48 111 91
E 48 119 98
E 48 120 96
E 48 126 95
E 48 130 100
E 48 132 100
E 48 144 92
E 48 151 103
E 48 152 94
E 48 155 94
E 48 158 102
E 48 159 96
E 49 50 100
E 49 67 101
E 49 70 98
E 49 71 99
E 49 75 98
E 49 80 102
E 49 81 88
E 49 83 92
E 49 84 111
E 49 90 99
E 49 91 106
E 49 93 103
E 49 94 92
E 49 99 105
E 49 104 102
E 49 109 101
E 49 114 99
E 49 116 106
E 49 118 103
E 49 131 105
E 49 135 100
E 49 137 103
E 49 138 96
E 49 140 108
E 49 157 102
E 49 159 101
E 50 56 94
E 50 59 93
E 50 60 98
E 50 65 100
E 50 70 101
E 50 71 99
E 50 73 105
E 50 79 97
E 50 80 104
E 50 99 97
E 50 102 103
E 50 108 97
E 50 109 105
E 50 110 101
E 50 112 97
E 50 118 107
E 50 132 107
E 50 138 99
E 50 140 101
E 50 148 101
E 50 151 104
E 50 152 94
E 50 154 106
E 50 158 101
E 50 160 106
E 51 52 97
E 51 53 104
E 51 56 101
E 51 59 110
E 51 62 103
E 51 67 96
E 51 69 98
E 51 73 102
E 51 76 102
E 51 83 99
E 51 86 102
E 51 87 94
E 51 90 102
E 51 97 107
E 51 99 100
E 51 108 98
E 51 112 102
E 51 119 100
E 51 124 104
E 51 131 103
E 51 134 96
E 51 141 98
E 51 146 94
E 51 158 106
E 52 54 102
E 52 57 94
E 52 62 110
E 52 66 108
E 52 70 100
E 52 73 97
E 52 76 102
E 52 80 101
E 52 82 100
E 52 125 106
E 52 136 108
E 52 137 100
E 52 138 98
E 52 144 105
E 52 147 95
E 52 151 92
E 52 155 98
E 53 65 99
E 53 67 91
E 53 71 103
E 53 74 99
E 53 76 94
E 53 77 106
E 53 84 96
E 53 85 104
E 53 96 95
E 53 98 108
E 53 103 95
E 53 113 103
E 53 116 107
E 53 123 106
E 53 129 105
E 53 131 98
E 53 137 108
E 53 140 101
E 53 143 96
E 53 144 103
E 53 147 93
E 53 152 100
E 53 155 110
E 53 160 97
E 54 60 91
E 54 64 102
E 54 67 97
E 54 69 111
E 54 71 97
E 54 79 98
E 54 86 100
E 54 94 96
E 54 95 91
E 54 97 106
E 54 106 98
E 54 110 106
E 54 111 99
E 54 115 99
E 54 120 93
E 54 124 106
E 54 126 102
E 54 135 96
E 54 139 102
E 54 143 96
E 54 148 107
E 54 149 99
E 54 151 100
E 55 60 109
E 55 70 93
E 55 72 104
E 55 78 101
E 55 79 105
E 55 83 98
E 55 95 99
E 55 98 92
E 55 100 96
E 55 111 103
E 55 113 101
E 55 114 96
E 55 118 92
E 55 131 97
E 55 133 99
E 55 134 99
E 55 136 95
E 55 139 88
E 55 140 106
E 55 141 93
E 55 145 102
E 55 147 94
E 55 150 101
E 55 157 92
E 55 160 102
E 56 58 100
E 56 64 98
E 56 69 97
E 56 75 96
E 56 79 103
E 56 81 103
E 56 85 100
E 56 89 101
E 56 104 95
E 56 119 96
E 56 122 101
E 56 125 94
E 56 126 102
E 56 129 92
E 56 130 106
E 56 143 96
E 56 153 99
E 56 155 105
E 57 58 103
E 57 59 105
E 57 62 100
E 57 63 96
E 57 64 97
E 57 83 101
E 57 89 100
E 57 92 103
E 57 113 98
E 57 118 105
E 57 120 99
E 57 129 99
E 57 130 92
E 57 142 96
E 57 148 102
E 57 150 105
E 57 153 98
E 57 156 94
E 57 158 96
E 57 159 101
E 58 62 90
E 58 63 94
E 58 67 93
E 58 70 97
E 58 71 104
E 58 78 96
E 58 102 95
E 58 104 94
E 58 112 100
E 58 125 103
E 58 126 103
E 58 129 101
E 58 136 101
E 58 147 104
E 58 148 84
E 58 149 101
E 58 155 99
E 58 157 110
E 59 63 105
E 59 65 95
E 59 68 99
E 59 69 101
E 59 75 99
E 59 76 98
E 59 77 99
E 59 79 101
E 59 94 108
E 59 99 101
E 59 104 106
E 59 106 95
E 59 107 97
E 59 115 94
E 59 119 96
E 59 141 109
E 59 159 101
E 60 67 104
E 60 70 89
E 60 71 91
E 60 74 101
E 60 85 98
E 60 87 98
E 60 92 100
E 60 105 96
E 60 106 109
E 60 115 105
E 60 125 91
E 60 126 106
E 60 129 94
E 60 132 105
E 60 137 94
E 60 138 91
E 60 142 98
E 60 144 86
E 60 145 99
E 60 160 99
E 61 63 98
E 61 65 102
E 61 66 100
E 61 70 100
E 61 72 99
E 61 78 99
E 61 88 104
E 61 94 98
E 61 97 101
E 61 102 101
E 61 114 93
E 61 116 95
E 61 128 101
E 61 130 105
E 61 131 97
E 61 134 97
E 61 139 100
E 61 151 95
E 61 158 107
E 61 159 90
E 62 68 101
E 62 73 93
E 62 75 107
E 62 81 107
E 62 86 105
E 62 93 102
E 62 109 96
E 62 120 94
E 62 124 96
E 62 128 94
E 62 129 93
E 62 140 109
E 62 141 95
E 62 145 101
E 62 146 92
E 62 147 97
E 62 150 99
E 62 154 99
E 63 69 89
E 63 73 105
E 63 76 95
E 63 86 103
E 63 88 95
E 63 98 102
E 63 108 107
E 63 112 101
E 63 113 101
E 63 117 91
E 63 121 107
E 63 122 98
E 63 124 102
E 63 127 98
E 63 136 100
E 63 141 102
E 63 152 102
E 63 155 91
E 63 157 90
E 63 159 107
E 64 69 90
E 64 75 101
E 64 85 95
E 64 92 99
E 64 93 99
E 64 103 99
E 64 105 97
E 64 111 98
E 64 120 101
E 64 121 106
E 64 122 104
E 64 127 101
E 64 128 96
E 64 137 98
E 64 145 94
E 64 152 100
E 64 155 104
E 64 156 97
E 64 157 99
E 65 94 105
E 65 99 102
E 65 126 100
E 65 135 97
E 65 137 98
E 65 142 96
E 65 150 99
E 65 156 104
E 65 157 93
E 65 158 101
E 66 67 96
E 66 78 94
E 66 90 101
E 66 101 100
E 66 108 102
E 66 113 105
E 66 117 99
E 66 118 103
E 66 126 97
E 66 136 94
E 66 137 104
E 66 139 100
E 66 146 103
E 66 151 103
E 66 158 99
E 66 160 98
E 67 70 91
E 67 73 94
E 67 75 97
E 67 79 99
E 67 81 96
E 67 82 105
E 67 100 99
E 67 118 102
E 67 121 103
E 67 125 102
E 67 129 95
E 67 134 98
E 67 149 101
E 67 160 94
E 68 69 94
E 68 74 107
E 68 75 109
E 68 83 102
E 68 95 101
E 68 98 96
E 68 101 102
E 68 107 87
E 68 110 104
E 68 113 94
E 68 116 94
E 68 118 102
E 68 133 96
E 68 142 104
E 68 153 100
E 68 156 95
E 69 71 100
E 69 72 103
E 69 77 103
E 69 78 103
E 69 80 101
E 69 83 103
E 69 96 100
E 69 97 101
E 69 102 102
E 69 109 95
E 69 119 102
E 69 120 99
E 69 123 104
E 69 124 93
E 69 127 99
E 69 129 103
E 69 132 94
E 69 142 103
E 69 144 90
E 69 145 107
E 69 154 103
E 69 158 99
E 70 79 101
E 70 87 95
E 70 90 109
E 70 93 97
E 70 98 99
E 70 101 105
E 70 124 93
E 70 125 98
E 70 135 89
E 70 139 90
E 70 144 97
E 70 155 100
E 71 74 95
E 71 76 101
E 71 85 104
E 71 88 111
E 71 94 94
E 71 100 94
E 71 101 95
E 71 115 99
E 71 118 94
E 71 119 99
E 71 120 102
E 71 121 94
E 71 124 96
E 71 129 109
E 71 134 104
E 71 142 100
E 71 145 97
E 71 153 106
E 71 154 94
E 71 156 94
E 72 80 101
E 72 85 95
E 72 88 112
E 72 93 90
E 72 96 111
E 72 99 97
E 72 100 103
E 72 104 90
E 72 118 107
E 72 120 97
E 72 123 106
E 72 127 91
E 72 132 99
E 72 133 100
E 72 145 101
E 72 157 98
E 72 159 107
E 73 91 102
E 73 107 94
E 73 109 103
E 73 111 92
E 73 122 92
E 73 124 92
E 73 134 96
E 73 135 96
E 73 138 92
E 73 145 97
E 73 150 102
E 73 152 102
E 73 155 106
E 73 156 106
E 73 160 96
E 74 83 92
E 74 84 96
E 74 89 102
E 74 95 100
E 74 100 103
E 74 105 107
E 74 106 105
E 74 119 104
E 74 134 103
E 74 142 102
E 74 144 99
E 74 158 104
E 75 79 99
E 75 90 105
E 75 94 108
E 75 101 100
E 75 102 106
E 75 111 91
E 75 114 96
E 75 115 93
E 75 119 84
E 75 124 94
E 75 151 98
E 75 156 94
E 75 159 98
E 76 86 102
E 76 96 94
E 76 99 103
E 76 111 99
E 76 112 92
E 76 117 111
E 76 118 95
E 76 125 96
E 76 127 104
E 76 140 105
E 76 142 103
E 76 144 92
E 76 145 105
E 76 151 102
E 76 156 98
E 76 157 99
E 77 90 104
E 77 94 94
E 77 99 109
E 77 108 93
E 77 112 94
E 77 116 106
E 77 121 98
E 77 133 96
E 77 135 105
E 77 136 100
E 77 137 104
E 77 140 103
E 77 141 91
E 77 151 99
E 78 93 94
E 78 98 94
E 78 99 99
E 78 107 92
E 78 108 98
E 78 111 104
E 78 118 103
E 78 119 95
E 78 124 95
E 78 127 101
E 78 136 107
E 78 144 102
E 78 145 95
E 78 152 94
E 78 153 107
E 78 154 102
E 78 155 96
E 78 159 101
E 79 82 105
E 79 85 94
E 79 94 102
E 79 95 93
E 79 104 100
E 79 106 108
E 79 116 97
E 79 117 98
E 79 118 110
E 79 122 98
E 79 138 99
E 79 145 100
E 79 146 95
E 80 81 103
E 80 83 97
E 80 84 97
E 80 88 92
E 80 95 98
E 80 96 92
E 80 98 93
E 80 99 102
E 80 100 97
E 80 105 108
E 80 107 95
E 80 109 93
E 80 121 101
E 80 126 98
E 80 129 96
E 80 131 99
E 80 140 98
E 80 144 105
E 80 145 102
E 80 146 93
E 80 151 97
E 80 152 97
E 81 91 97
E 81 95 101
E 81 98 103
E 81 100 96
E 81 104 98
E 81 108 97
E 81 110 99
E 81 113 100
E 81 114 105
E 81 115 106
E 81 121 97
E 81 123 95
E 81 126 100
E 81 127 98
E 81 129 91
E 81 130 99
E 81 134 102
E 81 136 99
E 81 137 96
E 81 142 100
E 81 153 96
E 81 154 96
E 81 156 102
E 82 92 96
E 82 100 102
E 82 102 102
E 82 115 97
E 82 118 92
E 82 123 103
E 82 126 99
E 82 130 93
E 82 131 104
E 82 132 93
E 82 136 104
E 82 143 104
E 82 148 94
E 82 151 105
E 82 156 89
E 82 158 107
E 83 92 98
E 83 93 97
E 83 96 93
E 83 100 98
E 83 103 98
E 83 104 104
E 83 115 100
E 83 116 97
E 83 119 98
E 83 129 97
E 83 135 108
E 83 138 96
E 83 141 96
E 83 152 91
E 83 155 95
E 83 158 97
E 83 159 101
E 84 86 95
E 84 91 104
E 84 116 96
E 84 122 103
E 84 130 90
E 84 135 101
E 84 136 103
E 84 137 99
E 84 139 102
E 84 143 96
E 84 158 94
E 85 90 92
E 85 95 96
E 85 113 104
E 85 116 103
E 85 117 90
E 85 120 107
E 85 121 108
E 85 122 101
E 85 125 106
E 85 135 100
E 85 136 104
E 85 144 93
E 85 146 100
E 85 149 100
E 85 160 88
E 86 91 100
E 86 96 101
E 86 97 99
E 86 98 98
E 86 102 99
E 86 110 92
E 86 114 105
E 86 115 95
E 86 116 104
E 86 128 96
E 86 138 105
E 86 148 95
E 86 152 105
E 86 153 95
E 87 89 106
E 87 99 109
E 87 116 89
E 87 124 95
E 87 131 103
E 87 132 106
E 87 133 102
E 87 136 109
E 87 137 102
E 87 139 98
E 87 153 104
E 87 158 95
E 88 89 96
E 88 91 94
E 88 92 99
E 88 93 101
E 88 98 87
E 88 106 97
E 88 117 99
E 88 120 103
E 88 122 104
E 88 127 102
E 88 132 94
E 88 136 99
E 88 141 97
E 88 143 101
E 88 145 94
E 88 155 105
E 88 160 100
E 89 92 108
E 89 93 99
E 89 97 96
E 89 98 98
E 89 101 89
E 89 105 92
E 89 106 102
E 89 111 97
E 89 113 94
E 89 115 104
E 89 121 101
E 89 129 100
E 89 136 99
E 89 139 95
E 89 143 107
E 89 150 95
E 89 157 104
E 89 158 101
E 90 92 100
E 90 98 90
E 90 99 87
E 90 104 102
E 90 109 100
E 90 125 102
E 90 127 107
E 90 130 105
E 90 132 94
E 90 141 103
E 90 142 100
E 90 154 103
E 90 160 99
E 91 92 98
E 91 94 93
E 91 105 101
E 91 121 98
E 91 122 96
E 91 136 91
E 91 138 106
E 91 141 104
E 91 152 101
E 91 153 92
E 91 158 96
E 92 96 105
E 92 103 102
E 92 106 91
E 92 108 97
E 92 109 106
E 92 112 108
E 92 121 102
E 92 125 99
E 92 132 110
E 92 134 97
E 92 137 105
E 92 138 99
E 92 141 94
E 92 142 92
E 92 146 107
E 92 148 101
E 92 151 96
E 92 155 102
E 92 160 97
E 93 95 100
E 93 97 104
E 93 100 107
E 93 104 98
E 93 112 98
E 93 120 98
E 93 121 105
E 93 122 99
E 93 138 107
E 93 140 95
E 93 143 106
E 93 152 96
E 93 156 98
E 93 160 91
E 94 95 97
E 94 100 97
E 94 103 93
E 94 108 101
E 94 109 96
E 94 125 95
E 94 134 97
E 94 140 94
E 94 146 94
E 94 151 109
E 94 156 104
E 94 160 99
E 95 96 103
E 95 101 101
E 95 117 97
E 95 118 97
E 95 123 104
E 95 127 96
E 95 139 103
E 95 140 95
E 95 145 96
E 95 146 111
E 95 154 99
E 95 155 97
E 95 157 96
E 96 97 104
E 96 101 98
E 96 102 101
E 96 112 94
E 96 123 105
E 96 127 99
E 96 129 94
E 96 134 99
E 96 137 96
E 96 143 97
E 96 146 95
E 96 151 97
E 96 152 87
E 96 160 96
E 97 100 94
E 97 101 110
E 97 103 98
E 97 106 101
E 97 108 104
E 97 110 97
E 97 111 98
E 97 117 103
E 97 123 98
E 97 126 96
E 97 127 100
E 97 132 100
E 97 141 106
E 97 143 97
E 97 144 104
E 97 145 96
E 97 146 96
E 97 147 98
E 97 156 101
E 97 157 104
E 97 159 105
E 98 100 100
E 98 113 108
E 98 114 106
E 98 122 102
E 98 131 100
E 98 136 90
E 98 153 97
E 98 155 104
E 99 103 89
E 99 106 100
E 99 112 103
E 99 126 100
E 99 127 93
E 99 130 94
E 99 131 99
E 99 135 97
E 99 137 95
E 99 139 105
E 99 140 98
E 99 146 110
E 99 151 100
E 100 104 98
E 100 106 101
E 100 107 101
E 100 108 105
E 100 119 101
E 100 127 89
E 100 129 99
E 100 133 95
E 100 142 101
E 100 145 93
E 100 146 93
E 101 106 111
E 101 107 101
E 101 108 99
E 101 109 106
E 101 123 87
E 101 124 97
E 101 125 99
E 101 127 101
E 101 128 100
E 101 129 95
E 101 136 100
E 101 139 105
E 101 143 94
E 101 145 96
E 101 149 104
E 101 151 106
E 102 105 97
E 102 106 98
E 102 107 95
E 102 110 95
E 102 111 101
E 102 122 102
E 102 123 94
E 102 126 109
E 102 128 91
E 102 132 99
E 102 138 97
E 102 141 102
E 102 158 101
E 102 160 106
E 103 106 94
E 103 116 96
E 103 119 96
E 103 120 109
E 103 126 102
E 103 130 95
E 103 139 109
E 103 142 114
E 103 145 103
E 103 152 97
E 103 159 99
E 103 160 106
E 104 105 107
E 104 111 111
E 104 112 97
E 104 113 102
E 104 125 100
E 104 127 92
E 104 130 98
E 104 134 107
E 104 137 105
E 105 119 105
E 105 123 100
E 105 126 105
E 105 130 98
E 105 133 103
E 105 135 97
E 105 136 98
E 105 152 92
E 105 159 103
E 106 125 103
E 106 127 107
E 106 131 102
E 106 132 99
E 106 135 99
E 106 145 105
E 106 154 101
E 107 114 94
E 107 124 100
E 107 133 102
E 107 136 95
E 107 137 100
E 107 141 102
E 107 151 92
E 107 154 90
E 107 155 105
E 108 109 103
E 108 125 107
E 108 133 104
E 108 138 96
E 108 142 108
E 108 150 92
E 108 151 98
E 109 110 101
E 109 113 99
E 109 116 96
E 109 129 99
E 109 130 97
E 109 152 102
E 109 153 99
E 109 157 90
E 110 116 103
E 110 118 103
E 110 121 109
E 110 142 109
E 110 143 103
E 110 152 106
E 110 156 103
E 111 124 100
E 111 135 110
E 111 137 95
E 111 153 90
E 111 155 104
E 112 113 98
E 112 114 92
E 112 121 94
E 112 124 92
E 112 125 102
E 112 126 105
E 112 130 97
E 112 132 99
E 112 137 100
E 112 145 107
E 112 150 94
E 112 152 103
E 113 115 97
E 113 120 110
E 113 125 87
E 113 127 93
E 113 129 100
E 113 130 98
E 113 144 96
E 113 146 99
E 113 148 100
E 113 151 100
E 114 118 94
E 114 119 102
E 114 120 107
E 114 125 98
E 114 130 110
E 114 136 102
E 114 141 97
E 114 143 92
E 114 157 100
E 114 159 94
E 115 117 102
E 115 121 110
E 115 123 100
E 115 129 101
E 115 143 100
E 115 145 96
E 115 147 96
E 115 158 95
E 116 118 102
E 116 120 105
E 116 121 98
E 116 129 97
E 116 130 103
E 116 135 101
E 116 139 98
E 116 144 99
E 116 146 96
E 116 151 98
E 116 152 101
E 116 154 96
E 117 120 102
E 117 128 94
E 117 142 96
E 117 157 98
E 117 160 102
E 118 124 98
E 118 131 93
E 118 132 104
E 118 134 106
E 118 141 98
E 118 143 98
E 118 151 95
E 118 152 109
E 118 153 102
E 118 155 98
E 119 121 103
E 119 125 96
E 119 128 103
E 119 131 99
E 119 132 111
E 119 134 98
E 119 135 100
E 119 137 97
E 119 139 111
E 119 142 106
E 119 144 103
E 119 150 100
E 119 151 96
E 119 155 105
E 119 157 93
E 119 159 99
E 120 126 105
E 120 133 107
E 120 134 100
E 120 142 103
E 120 144 99
E 120 151 95
E 120 153 110
E 120 158 99
E 121 125 97
E 121 131 94
E 121 133 98
E 121 137 99
E 121 138 93
E 121 144 98
E 121 148 99
E 121 151 100
E 121 153 106
E 121 156 94
E 121 159 104
E 122 135 95
E 122 139 102
E 122 145 101
E 123 127 91
E 123 129 98
E 123 132 101
E 123 136 102
E 123 139 96
E 123 148 107
E 123 158 102
E 123 159 98
E 123 160 95
E 124 125 88
E 124 129 101
E 124 131 95
E 124 132 94
E 124 136 94
E 124 139 94
E 124 153 93
E 125 127 97
E 125 142 102
E 125 145 88
E 125 154 101
E 125 158 98
E 126 130 97
E 126 131 100
E 126 145 104
E 126 146 99
E 126 151 97
E 127 131 113
E 127 137 108
E 127 145 96
E 127 146 101
E 127 153 95
E 128 130 96
E 128 131 102
E 128 143 102
E 128 147 88
E 128 149 98
E 129 133 94
E 129 139 107
E 129 143 101
E 130 131 95
E 130 133 103
E 130 148 99
E 130 149 99
E 130 150 101
E 130 157 88
E 131 132 101
E 131 154 96
E 131 159 110
E 131 160 99
E 132 135 100
E 132 140 97
E 132 142 98
E 132 143 102
E 132 144 92
E 132 146 105
E 132 153 93
E 132 158 98
E 133 135 98
E 133 136 97
E 133 140 103
E 133 152 101
E 133 156 103
E 133 159 92
E 134 135 97
E 134 136 110
E 134 137 90
E 134 141 111
E 134 143 106
E 134 150 101
E 134 151 105
E 134 156 104
E 135 139 99
E 135 141 107
E 135 147 94
E 135 149 108
E 135 152 100
E 135 153 91
E 135 154 89
E 135 155 93
E 135 159 101
E 136 138 106
E 136 143 102
E 136 153 108
E 136 154 104
E 136 159 89
E 137 141 102
E 137 143 105
E 137 144 96
E 137 145 102
E 137 149 107
E 137 153 96
E 137 156 93
E 137 157 103
E 138 148 101
E 138 154 104
E 138 155 103
E 138 157 95
E 138 159 92
E 139 141 108
E 139 153 108
E 139 155 89
E 140 142 97
E 140 145 101
E 140 146 92
E 140 147 96
E 140 149 96
E 140 150 101
E 140 151 94
E 140 152 95
E 140 153 100
E 140 160 97
E 141 142 102
E 141 143 103
E 141 147 107
E 141 150 93
E 141 151 90
E 142 145 99
E 142 147 92
E 142 148 98
E 142 149 104
E 142 154 105
E 142 157 102
E 143 145 101
E 143 148 97
E 143 151 93
E 143 152 110
E 144 147 92
E 144 151 102
E 144 152 102
E 144 153 103
E 144 154 95
E 145 146 91
E 145 148 104
E 145 149 104
E 145 159 97
E 147 148 97
E 147 149 101
E 147 151 100
E 147 157 95
E 147 158 105
E 147 159 100
E 148 155 96
E 149 150 105
E 149 155 102
E 150 152 110
E 150 155 111
E 150 159 94
E 151 156 98
E 151 160 94
E 152 156 99
E 152 158 91
E 152 160 101
E 154 156 99
E 155 157 110
E 156 159 99
E 157 158 103
E 159 160 96
END

SECTION Terminals
Terminals 24
T 1
T 2
T 3
T 4
T 5
T 6
T 7
T 8
T 9
T 10
T 11
T 12
T 13
T 14
T 15
T 16
T 17
T 18
T 19
T 20
T 21
T 22
T 23
T 24
END

EOF
